UFFLP version 2.0 over Coin-Cbc 2.4 by Artur Alves Pessoa
Clp0033I Presolve took 0.00 seconds (total 0.00)
Clp0031I Matrix can not be converted into +- 1
Clp1001I Initial range of elements is 1 to 4
Clp1003I Final range of elements is 0.25 to 1
Clp0022I Absolute values of scaled rhs range from 0.25 to 8, minimum gap 1e+100
Clp0020I Absolute values of scaled objective range from 1 to 4
Clp0021I Absolute values of scaled bounds range from 1 to 1, minimum gap 1
Clp0006I 0  Obj 0 Primal inf 43.25 (65)
Clp0006I 82  Obj 51.75 Primal inf 96.1111 (44)
Clp0006I 164  Obj 58 Primal inf 2.825 (10)
Clp0006I 185  Obj 58
Clp0000I Optimal - objective value 58
Clp0033I Dual took 0.00 seconds (total 0.00)
Clp0033I Postsolve took 0.00 seconds (total 0.00)
Clp0032I Optimal objective 58 - 185 iterations time 0.002, Presolve 0.00
Cgl0003I 55 fixed, 0 tightened bounds, 140 strengthened rows, 6 substitutions
Cgl0003I 55 fixed, 0 tightened bounds, 140 strengthened rows, 0 substitutions
Cgl0003I 42 fixed, 0 tightened bounds, 67 strengthened rows, 20 substitutions
Cgl0003I 2 fixed, 0 tightened bounds, 32 strengthened rows, 28 substitutions
Cgl0003I 0 fixed, 0 tightened bounds, 18 strengthened rows, 28 substitutions
Cgl0003I 0 fixed, 0 tightened bounds, 37 strengthened rows, 0 substitutions
Cgl0003I 0 fixed, 0 tightened bounds, 28 strengthened rows, 0 substitutions
Cgl0003I 0 fixed, 0 tightened bounds, 10 strengthened rows, 0 substitutions
Cgl0003I 0 fixed, 0 tightened bounds, 4 strengthened rows, 0 substitutions
Cgl0003I 0 fixed, 0 tightened bounds, 3 strengthened rows, 0 substitutions
Cgl0003I 0 fixed, 0 tightened bounds, 2 strengthened rows, 0 substitutions
Cgl0003I 0 fixed, 0 tightened bounds, 1 strengthened rows, 0 substitutions
Cgl0004I processed model has 70 rows, 119 columns (119 integer) and 429 elements
Cbc0009I Objective coefficients multiple of 1
Cbc0046I Root node pass 1, 70 rows, 0 total tight cuts  -  objective 63.5
Cbc0046I Root node pass 2, 73 rows, 3 total tight cuts  -  objective 64
Cbc0012I Integer solution of 64 found by rounding after 3 iterations and 0 nodes (0.03 seconds)
Cbc0031I 3 added rows had average density of 16.3333
Cbc0013I At root node, 3 cuts changed objective from 63.5 to 64 in 2 passes
Cbc0014I Cut generator 0 (UFFLP_User) - 0 row cuts average 0.0 elements, 0 column cuts (0 active)
Cbc0014I Cut generator 1 (Probing) - 3 row cuts average 2.0 elements, 0 column cuts (3 active)  in 0.001 seconds - new frequency is 1
Cbc0014I Cut generator 2 (Gomory) - 3 row cuts average 23.3 elements, 0 column cuts (0 active)  in 0.000 seconds - new frequency is 1
Cbc0014I Cut generator 3 (Knapsack) - 3 row cuts average 14.3 elements, 0 column cuts (0 active)  in 0.000 seconds - new frequency is 1
Cbc0014I Cut generator 4 (Clique) - 0 row cuts average 0.0 elements, 0 column cuts (0 active)  in 0.000 seconds - new frequency is 1000
Cbc0014I Cut generator 5 (FlowCover) - 0 row cuts average 0.0 elements, 0 column cuts (0 active)  in 0.000 seconds - new frequency is 1000
Cbc0014I Cut generator 6 (MixedIntegerRounding2) - 1 row cuts average 29.0 elements, 0 column cuts (0 active)  in 0.000 seconds - new frequency is 1
Cbc0001I Search completed - best objective 64, took 3 iterations and 0 nodes (0.03 seconds)
Cbc0035I Maximum depth 0, 0 variables fixed on reduced cost
